(declare-const v0 Bool)
(declare-const v1 Bool)
(declare-const v2 Bool)
(declare-const v3 Bool)
(assert (edge true (not v1)))
(assert (edge (not v1) v2))
(assert (edge (or v2 (not v3)) (or v1 (not v3))))
(assert (edge (or v1 v3 (not v2)) v2))
(assert (edge (not v2) (or v0 v1)))
(assert (not (edge v1 (or v0 v2 (not v1)))))